JulietBench/Juliet_Based_Patch_Bench/linux/CWE-189-Numeric-Errors/CVE_2011_2209_21c5977a836e399fc710ff2c5367845ed5c2527f/ResultSYSCALL_DEFINE3_SnippetNEQ.smt2
; benchmark generated from python API
(set-info :status unknown)
(declare-fun rdi () (_ BitVec 64))
(declare-fun R () (_ BitVec 64))
(declare-fun rsi () (_ BitVec 64))
(assert
 (let (($x75 (= R rdi)))
 (let (($x44 (bvule rdi rsi)))
 (let (($x79 (and $x44 $x75)))
 (let (($x67 (= R rsi)))
 (let (($x61 (bvugt rdi rsi)))
 (let (($x78 (and $x61 $x67)))
 (let (($x80 (or $x78 $x79)))
 (let (($x83 (not $x80)))
 (let (($x15 (bvsle rdi rsi)))
 (let (($x76 (and $x15 $x75)))
 (let (($x38 (bvsgt rdi rsi)))
 (let (($x74 (and $x38 $x67)))
 (let (($x77 (or $x74 $x76)))
 (let (($x82 (not $x77)))
 (let (($x84 (and $x82 $x83)))
 (let (($x81 (and $x77 $x80)))
 (let (($x85 (or $x81 $x84)))
 (not $x85)))))))))))))))))))
(check-sat)
